NAME: random problem
TYPE: MTSP
COMMENT: MTSP problem for MRS UAV summer school
DIMENSION: 20
NUMBER_OF_ROBOTS: 2
START_TARGET_INDEXES: 1, 2
NEIGHBORHOOD_RADIUS: 2
EDGE_WEIGHT_TYPE: EUC_2D
NODE_COORD_SECTION
1 15.0 -21.0
2 -5.0 -25.0
3 29.6 -9.8
4 16.6 -2.7
5 28.2 -7.6
6 2.2 -29.3
7 23.1 13.9
8 -8.9 -25.2
9 29.8 17.1
10 -12.3 -24.9
11 -2.9 4.9
12 -27.3 -22.6
13 -29.9 -15.7
14 -5.5 7.4
15 37.8 -10.7
16 -31.1 -30.2
17 -30.7 -27.2
18 23.6 -10.8
19 -28.7 6.3
20 -15.8 -32.8
EOF
